c t pwmc
c file mc2024_track4_014.cnf
p cnf 78 78
c p weight 2 0.50758147 0
c p weight -2 0.49241853 0
c p weight 61 0.66480025 0
c p weight -61 0.33519975 0
c p weight 1 1 0
c p weight -1 1 0
c p weight 3 1 0
c p weight -3 1 0
c p weight 4 1 0
c p weight -4 1 0
c p weight 5 1 0
c p weight -5 1 0
c p weight 6 1 0
c p weight -6 1 0
c p weight 7 1 0
c p weight -7 1 0
c p weight 8 1 0
c p weight -8 1 0
c p weight 9 1 0
c p weight -9 1 0
c p weight 10 1 0
c p weight -10 1 0
c p weight 11 1 0
c p weight -11 1 0
c p weight 12 1 0
c p weight -12 1 0
c p weight 13 1 0
c p weight -13 1 0
c p weight 14 1 0
c p weight -14 1 0
c p weight 15 1 0
c p weight -15 1 0
c p weight 16 1 0
c p weight -16 1 0
c p weight 17 1 0
c p weight -17 1 0
c p weight 18 1 0
c p weight -18 1 0
c p weight 19 1 0
c p weight -19 1 0
c p weight 20 1 0
c p weight -20 1 0
c p weight 21 1 0
c p weight -21 1 0
c p weight 22 1 0
c p weight -22 1 0
c p weight 23 1 0
c p weight -23 1 0
c p weight 24 1 0
c p weight -24 1 0
c p weight 25 1 0
c p weight -25 1 0
c p weight 26 1 0
c p weight -26 1 0
c p weight 27 1 0
c p weight -27 1 0
c p weight 28 1 0
c p weight -28 1 0
c p weight 29 1 0
c p weight -29 1 0
c p weight 30 1 0
c p weight -30 1 0
c p weight 31 1 0
c p weight -31 1 0
c p weight 32 1 0
c p weight -32 1 0
c p weight 33 1 0
c p weight -33 1 0
c p weight 34 1 0
c p weight -34 1 0
c p weight 35 1 0
c p weight -35 1 0
c p weight 36 1 0
c p weight -36 1 0
c p weight 37 1 0
c p weight -37 1 0
c p weight 38 1 0
c p weight -38 1 0
c p weight 39 1 0
c p weight -39 1 0
c p weight 40 1 0
c p weight -40 1 0
c p weight 41 1 0
c p weight -41 1 0
c p weight 42 1 0
c p weight -42 1 0
c p weight 43 1 0
c p weight -43 1 0
c p weight 44 1 0
c p weight -44 1 0
c p weight 45 1 0
c p weight -45 1 0
c p weight 46 1 0
c p weight -46 1 0
c p weight 47 1 0
c p weight -47 1 0
c p weight 48 1 0
c p weight -48 1 0
c p weight 49 1 0
c p weight -49 1 0
c p weight 50 1 0
c p weight -50 1 0
c p weight 51 1 0
c p weight -51 1 0
c p weight 52 1 0
c p weight -52 1 0
c p weight 53 1 0
c p weight -53 1 0
c p weight 54 1 0
c p weight -54 1 0
c p weight 55 1 0
c p weight -55 1 0
c p weight 56 1 0
c p weight -56 1 0
c p weight 57 1 0
c p weight -57 1 0
c p weight 58 1 0
c p weight -58 1 0
c p weight 59 1 0
c p weight -59 1 0
c p weight 60 1 0
c p weight -60 1 0
c p weight 62 1 0
c p weight -62 1 0
c p weight 63 1 0
c p weight -63 1 0
c p weight 64 1 0
c p weight -64 1 0
c p weight 65 1 0
c p weight -65 1 0
c p weight 66 1 0
c p weight -66 1 0
c p weight 67 1 0
c p weight -67 1 0
c p weight 68 1 0
c p weight -68 1 0
c p weight 69 1 0
c p weight -69 1 0
c p weight 70 1 0
c p weight -70 1 0
c p weight 71 1 0
c p weight -71 1 0
c p weight 72 1 0
c p weight -72 1 0
c p weight 73 1 0
c p weight -73 1 0
c p weight 74 1 0
c p weight -74 1 0
c p weight 75 1 0
c p weight -75 1 0
c p weight 76 1 0
c p weight -76 1 0
c p weight 77 1 0
c p weight -77 1 0
c p weight 78 1 0
c p weight -78 1 0
12 -67 69 0
33 -77 -26 0
-23 10 -25 0
20 50 -52 0
-70 14 -75 0
66 43 -35 0
-48 18 -68 0
-42 -2 32 0
71 13 1 0
-28 17 58 0
6 -15 -49 0
29 -38 72 0
-57 -30 61 0
-22 78 -5 0
-39 -55 -44 0
-7 -36 3 0
74 -73 53 0
34 -19 -54 0
-76 4 21 0
-24 62 46 0
-27 -37 59 0
-51 11 47 0
-9 -45 64 0
16 -41 56 0
-63 60 -31 0
-40 8 -65 0
42 -3 57 0
9 28 68 0
65 77 19 0
-29 39 73 0
37 -53 7 0
-62 -17 -21 0
63 75 -18 0
45 -78 54 0
38 -69 26 0
-16 -6 -59 0
15 -4 51 0
-34 27 -72 0
48 25 -1 0
23 -61 76 0
-60 35 49 0
-47 -56 2 0
30 36 -64 0
-11 44 67 0
-50 -74 -71 0
55 -43 -8 0
-12 -46 5 0
52 31 41 0
-10 70 40 0
-66 -58 24 0
-32 22 -13 0
-14 -20 -33 0
58 -67 29 0
-37 -66 -32 0
-8 17 14 0
-15 -18 -22 0
10 44 1 0
-61 -74 -26 0
-53 64 41 0
-40 51 63 0
50 -33 -62 0
-57 -5 13 0
68 75 -71 0
-16 65 -70 0
52 -6 73 0
35 -42 -39 0
-27 -36 -24 0
12 -38 60 0
-43 -25 -28 0
-30 -72 54 0
55 -7 -34 0
-19 69 45 0
-2 31 -20 0
-49 76 59 0
4 -9 -46 0
78 48 -77 0
11 23 -3 0
-47 -21 -56 0
c p show 2 61 0
